
  32   50
  10    5    9    2   15   14    9    7    9    7   17   17    8    6   16    1    5   15   10   16   14   10   15   13    2   10   17    4   16   15    9   15    0    0    0    0    0    0    0    0    0    0    0    0    0    0    0    0    0    0

   0   0   0   0   0   0   0   0   0   0   0   0   0   0   0   0   0   0   0   0   0   0   0   0   0   0   0   0   0   0   0   0   0   0   0   0   0   0   0   0   0   0   0   0   0   0   0   0   0   0   0  11 2 3 4 5 6 7 8 9 15 16 17 
   7   0   0   0   0   0   0   0   0   0   0  10   4   0   0   0   0   4   0   1   2   0   0   0   6   0   0   0   0   0   7   0   0   0   0   0   0   0   0   0   0   0   0   0   0   0   0   0   0   0   0   6 30 29 20 13 12 10 
   7   7   0   0   0   4   0   0   0   0   7   0   0   0   0   0   0   0   0   0  10   0   0  10   0   0   0   9   0   0   9   0   0   0   0   0   0   0   0   0   0   0   0   0   0   0   0   0   0   0   0   7 31 20 19 18 14 13 12 
   1   0   3   0   0   0   0   0   6   4   0   0   0   0   0   8   1   0   0   0   0   0   0   7  10   0   0   0   0   1   0   0   0   0   0   0   0   0   0   0   0   0   0   0   0   0   0   0   0   0   0   6 30 29 28 26 13 10 
   3   0   0   0   0   0   0   0   0   0   0   0   0   0   0   0   0   0   0   0   0   0   0   0   0   0   0   0   0   0   0   2   0   0   0   0   0   0   0   0   0   0   0   0   0   0   0   0   0   0   0   5 31 19 18 13 12 
   4   0   0   0   0   0   0   0   0   0   0  10   0   0   0  10   0   0   0   0   0   0   0   0   0   0   0   0   0   0   0   0   0   0   0   0   0   0   0   0   0   0   0   0   0   0   0   0   0   0   0   7 29 27 25 23 21 19 18 
   8   0   0   0   0   8   0   0   2   0   0   1   0   0   0   0   0   0   8   0   0   0   0   0   0   0   0   0   0   6   3   0   5   0   0   0   0   0   0   0   0   0   0   0   0   0   0   0   0   0   0   4 29 28 26 11 
   8   0   0   6   0   0   0   0   0   0   0   0   0   0   0   0   0   3   0   0   2   4   0   0   0   0   0   0   2   0   0   0   7   0   0   0   0   0   0   0   0   0   0   0   0   0   0   0   0   0   0   7 30 29 27 26 25 23 18 
   7   0   0   0   0   0   0   9   0   0   0   0   0   0   0   0   0   0   0   9   0   0   0   0   0   0   0   0   0   1   0   0   0   0   0   0   0   0   0   0   0   0   0   0   0   0   0   0   0   0   0   3 26 18 11 
   5   0   0   0   2   0   0   0   0   0   0   0   0   8   0   0   0   0   0   0  10   0   0   0   0   0   0   7   0   5   0   0   8   0   0   0   0   0   0   0   0   0   0   0   0   0   0   0   0   0   0   5 27 25 23 19 18 
   4   0   0   0   0   4   0   0   0   0   0   0  10   0   0   0   0   0   0   0  10   0   0   0   0   0   0   9   0   0   0   0   0   0   0   0   0   0   0   0   0   0   0   0   0   0   0   0   0   0   0   3 27 24 13 
   8   0   0   0   0   0   0   0   0   0   0   7   0   0   0   0   0   0   0   8   0   0   0   0   0   0   0   0   0   0   0   4   0   0   0   0   0   0   0   0   0   0   0   0   0   0   0   0   0   0   0   5 28 26 24 23 22 
   8   0   0   0   0   0   0   0   0   0   0   0   0   0   0   0   0   0   2   0   0   7   0   0   0   0   0   0   0   0   0   0   0   0   0   0   0   0   0   0   0   0   0   0   0   0   0   0   0   0   0   3 25 23 22 
   3   0   0   0   0   0   0   0   0   0   0   0   0   0   0   0   0   0   0   3   0   0   0   0   0   0   0   0   0   0   1   0   0   0   0   0   0   0   0   0   0   0   0   0   0   0   0   0   0   0   0   3 28 27 26 
   2   0   0   0   0   0   0   0   0   0   0   0   0   0   0   0   0   0   0   0   0   0   5   0   0   1   0   0   0   0   0   0   3   0   0   0   0   0   0   0   0   0   0   0   0   0   0   0   0   0   0   3 30 25 23 
   5   0   0   0   0   7   0   0   0   0   0   0   0   0   0   0   0   0   0   0   0   0   0   2   0   0   0   0   0   0   0   0   0   0   0   0   0   0   0   0   0   0   0   0   0   0   0   0   0   0   0   3 26 25 22 
   7   0   0   0   0   0   0   0   0   0   0   0   0   0   0   2   0   0   4   0   0   0   0   0   0   0   0   0   3   0   0   8   0   0   0   0   0   0   0   0   0   0   0   0   0   0   0   0   0   0   0   3 24 23 22 
   3   0   1   0   0   0   0   0   0   0   0   0   0   0   0   0   0   0   0   0   0   9   0   5   0   0   2   0   0   6   0   0   0   0   0   0   0   0   0   0   0   0   0   0   0   0   0   0   0   0   0   2 24 22 
  10   0   0   0   0   0   0   0   0   0   7   0   0   0   0   0   0   3   0   0   0   0   0   5   0   0   0   0   0   0   7   0   0   0   0   0   0   0   0   0   0   0   0   0   0   0   0   0   0   0   0   2 24 22 
   2   0   0   5   0   0   8   0   0   0   4   0   0   0   0   0   0   0   0   0   0   0   0   0   0   0   0   0   0   0   0   0   0   0   0   0   0   0   0   0   0   0   0   0   0   0   0   0   0   0   0   1 28 
   6   0   5   0   0   0   0   0   0   0   0   0   0   0   0   0   0   0   8   0   0   6   2   0   0   0   4   0   0   9   0   0   0   0   0   0   0   0   0   0   0   0   0   0   0   0   0   0   0   0   0   1 26 
   3  10   0   0   0   0   0   0   0   0   0   0   5   0   0   0   0   0   0   0   0   0   0   6   0   0  10   0   0   0   3   0   0   0   0   0   0   0   0   0   0   0   0   0   0   0   0   0   0   0   0   1 32
   7   1   0   0   0   0   0   0   0   0   0   0   0   0   0   5   0   0   0   0   6   0   0   0   0   0   0   0   0   3   0   0   0   0   0   0   0   0   0   0   0   0   0   0   0   0   0   0   0   0   0   1 32
   6   0   0   0   0   9   6   0   0   0   0   0  10   0   0   0   0   0   0   0   0   0   0   0   0   0   0   0   0   4   0   0   0   0   0   0   0   0   0   0   0   0   0   0   0   0   0   0   0   0   0   1 32
   1   3   0   0   0   0   8   0   0   0   0   0   0   0   0   0   0   0   0   0   0   0  10   8   0   0   0   0   0   0   0   0   2   0   0   0   0   0   0   0   0   0   0   0   0   0   0   0   0   0   0   1 32
   3   0   0   0   0   3   0   0   0   0   0   0   2   0   0   0   0   0   0   0   0   0   0   3   0   0   0   0   0   4   0   0   0   0   0   0   0   0   0   0   0   0   0   0   0   0   0   0   0   0   0   1 32
   5   0   0   0   0   0   3   0   0   0   0   0   0   0   0   0   0   0   0   0   0   0   0   0   0   0   0   0   0   0   0   0   0   0   0   0   0   0   0   0   0   0   0   0   0   0   0   0   0   0   0   1 32
   9   0   0   0   0   0   4   0   0   0   0   0   0   8   0   0   0   0   4   0   8   0   0   0   0   2   0   0   0   0   0   0   0   0   0   0   0   0   0   0   0   0   0   0   0   0   0   0   0   0   0   1 32
   7   0   0   0   0   0   5   0   0   9   0   0   8   0   6   0   0   0   8   0   0   1   1   9   0   0   0   6   0   0   0   0   0   0   0   0   0   0   0   0   0   0   0   0   0   0   0   0   0   0   0   1 32
   2   0   0   0   0   0   5   0   0   0   0   0   0   0   0   0   0   0   0   0   0   0   0   0   0   0   0   0   0   0   0   0   0   0   0   0   0   0   0   0   0   0   0   0   0   0   0   0   0   0   0   1 32
   5   0   0   0   0   8   0   0   0   0   0   0   3   0   0   0   0   0   0   0   0   0   0   7   6   0   0   0   0   0   0   0   0   0   0   0   0   0   0   0   0   0   0   0   0   0   0   0   0   0   0   1 32
   0   0   0   0   0   0   0   0   0   0   0   0   0   0   0   0   0   0   0   0   0   0   0   0   0   0   0   0   0   0   0   0   0   0   0   0   0   0   0   0   0   0   0   0   0   0   0   0   0   0   0   0 
